p cnf 1758 3080
-2 0
-3 0
-4 0
-5 0
-7 0
-8 0
-9 0
-10 0
-11 0
-12 0
-13 0
-14 0
-15 0
-16 0
-17 0
-18 0
-19 0
-20 0
-21 0
-22 0
-23 0
-24 0
-25 0
-26 0
-27 0
-28 0
-29 0
-30 0
-31 0
-32 0
-33 0
-34 0
-41 0
-43 0
45 0
-46 0
-47 0
-48 0
-49 0
-50 0
-51 0
-52 0
-54 0
-55 0
-56 0
-57 0
-58 0
-59 0
-74 0
-75 0
-76 0
-80 0
-81 0
-82 0
-83 0
-84 0
-96 0
-107 0
-111 0
-112 0
-113 0
-114 0
-115 0
-117 0
-121 0
-124 0
-125 0
-126 0
-127 0
-128 0
-131 0
-132 0
-133 0
-135 0
-136 0
-137 0
-138 0
-139 0
-140 0
-143 0
-147 0
-148 0
-149 0
-150 0
-151 0
-152 0
-153 0
-154 0
-157 0
-158 0
-159 0
-161 0
-162 0
-163 0
-174 0
-175 0
-178 0
-179 0
-188 0
-190 0
-192 0
-193 0
-194 0
-197 0
-198 0
-199 0
-200 0
-201 0
-202 0
-203 0
-204 0
-205 0
-206 0
-207 0
-208 0
-211 0
-212 0
-213 0
-214 0
-215 0
-216 0
-217 0
-218 0
-219 0
-220 0
-221 0
-222 0
-223 0
-224 0
-225 0
-226 0
-227 0
-228 0
-229 0
-230 0
-231 0
-232 0
-233 0
-234 0
-235 0
-236 0
-237 0
-238 0
-239 0
-240 0
-241 0
-242 0
-243 0
-244 0
-245 0
-246 0
-247 0
-248 0
-249 0
-250 0
-251 0
-252 0
-253 0
-254 0
-255 0
-256 0
-257 0
-260 0
-262 0
-263 0
-266 0
-267 0
-268 0
-269 0
-270 0
-271 0
-272 0
-273 0
-274 0
-276 0
-277 0
-278 0
-279 0
-280 0
-283 0
-284 0
-285 0
-286 0
-287 0
-288 0
-289 0
-290 0
-291 0
-292 0
-293 0
-294 0
-295 0
-296 0
-297 0
-298 0
-299 0
-302 0
-308 0
-309 0
-310 0
-311 0
-312 0
-313 0
-314 0
-315 0
-316 0
-317 0
-318 0
-319 0
-320 0
-321 0
-322 0
-323 0
-324 0
-325 0
-326 0
-327 0
-328 0
-329 0
-330 0
-331 0
-332 0
-333 0
-334 0
-335 0
-336 0
-337 0
-338 0
-339 0
-340 0
-341 0
-342 0
-343 0
-347 0
-349 0
-350 0
-351 0
-352 0
-353 0
-354 0
-355 0
-374 0
-375 0
-380 0
-381 0
-382 0
-383 0
-384 0
-385 0
-386 0
-387 0
-388 0
-390 0
-391 0
-402 0
-419 0
-438 0
-439 0
-440 0
-442 0
-443 0
-444 0
-445 0
-446 0
-447 0
-460 0
-467 0
-468 0
-469 0
-470 0
-473 0
-474 0
-475 0
-477 0
-478 0
-479 0
-480 0
-483 0
490 0
-491 0
-492 0
-493 0
-494 0
-495 0
-496 0
-497 0
-498 0
-499 0
-500 0
-501 0
-502 0
-503 0
-504 0
-505 0
-506 0
-507 0
-510 0
511 0
-512 0
-513 0
-514 0
-515 0
-516 0
-517 0
-518 0
-519 0
-520 0
-521 0
-522 0
-523 0
-524 0
-525 0
-526 0
-527 0
-528 0
-529 0
-530 0
-531 0
-532 0
-533 0
-534 0
-535 0
-536 0
-537 0
-538 0
-539 0
-540 0
-541 0
-542 0
-543 0
-544 0
-545 0
-546 0
-547 0
-548 0
-549 0
-550 0
-551 0
-552 0
553 0
554 0
-813 0
-814 0
-815 0
-816 0
-817 0
-818 0
-819 0
-820 0
-821 0
-822 0
-823 0
-824 0
-825 0
-826 0
-827 0
-828 0
-829 0
-830 0
-831 0
-832 0
-833 0
-834 0
-835 0
-836 0
-837 0
-838 0
-839 0
-840 0
-841 0
-842 0
-843 0
-844 0
-845 0
-846 0
-847 0
-848 0
-849 0
-850 0
-851 0
-852 0
-853 0
-854 0
-855 0
-856 0
-857 0
-858 0
-859 0
-860 0
-861 0
-862 0
-863 0
-864 0
-865 0
-866 0
-867 0
-868 0
-869 0
-870 0
-871 0
-872 0
-873 0
-874 0
-875 0
-876 0
-877 0
-878 0
-879 0
-880 0
-881 0
-882 0
-883 0
-884 0
-885 0
-886 0
-887 0
-888 0
-889 0
-890 0
-891 0
-892 0
-893 0
-894 0
-895 0
-896 0
-897 0
-898 0
-899 0
-900 0
-901 0
-902 0
-903 0
-904 0
-905 0
-906 0
-907 0
-908 0
-909 0
-910 0
-911 0
-912 0
-913 0
-914 0
-915 0
-916 0
-917 0
-918 0
-919 0
-920 0
-921 0
-922 0
-923 0
-924 0
-925 0
-926 0
-927 0
-928 0
-929 0
-930 0
-931 0
-932 0
-933 0
-934 0
-935 0
-936 0
-937 0
-938 0
-939 0
-940 0
-941 0
-942 0
-943 0
-944 0
-945 0
-946 0
-947 0
-948 0
-949 0
-950 0
-951 0
-952 0
-953 0
-954 0
-955 0
-956 0
-957 0
-958 0
-959 0
-960 0
-961 0
-962 0
-963 0
-964 0
-965 0
-966 0
-967 0
-968 0
-969 0
-970 0
-971 0
-972 0
-973 0
-974 0
-975 0
-976 0
-977 0
-978 0
-979 0
-980 0
-981 0
-982 0
-983 0
-984 0
-985 0
-986 0
-987 0
-988 0
-989 0
-990 0
-991 0
-992 0
-993 0
-994 0
-995 0
-996 0
-997 0
-998 0
-999 0
-1000 0
-1001 0
-1002 0
-1003 0
-1004 0
-1005 0
-1006 0
-1007 0
-1008 0
-1009 0
-1010 0
-1011 0
-1012 0
-1013 0
-1014 0
-1015 0
-1016 0
-1017 0
-1018 0
-1019 0
-1020 0
-1021 0
-1022 0
-1023 0
-1024 0
-1025 0
-1026 0
-1027 0
-1028 0
-1029 0
-1030 0
-1031 0
-1032 0
-1033 0
-1034 0
-1035 0
-1036 0
-1037 0
-1038 0
-1039 0
-1040 0
-1041 0
-1042 0
-1043 0
-1044 0
-1045 0
-1046 0
-1047 0
-1048 0
-1049 0
-1050 0
-1051 0
-1052 0
-1053 0
-1054 0
-1055 0
-1056 0
-1057 0
-1058 0
-1059 0
-1060 0
-1061 0
-1062 0
-1063 0
-1064 0
-1065 0
-1066 0
-1067 0
-1068 0
-1069 0
-1070 0
-1071 0
-1072 0
-1073 0
-1074 0
-1075 0
-1076 0
-1077 0
-1078 0
-1079 0
-1080 0
-1081 0
-1082 0
-1083 0
-1084 0
-1085 0
-1086 0
-1087 0
-1088 0
-1089 0
-1090 0
-1091 0
-1092 0
-1093 0
-1094 0
-1095 0
-1096 0
-1097 0
-1098 0
-1099 0
-1100 0
-1101 0
-1102 0
-1103 0
-1104 0
-1105 0
-1106 0
-1107 0
-1108 0
-1109 0
-1110 0
-1111 0
-1112 0
-1113 0
-1114 0
-1115 0
-1116 0
-1117 0
-1118 0
-1119 0
-1120 0
-1121 0
-1122 0
-1123 0
-1124 0
-1125 0
-1126 0
-1127 0
-1128 0
-1129 0
-1130 0
-1131 0
-1132 0
-1133 0
-1134 0
-1135 0
-1136 0
-1137 0
-1138 0
-1139 0
-1140 0
-1141 0
-1142 0
-1143 0
-1144 0
-1145 0
-1146 0
-1147 0
-1148 0
-1149 0
-1150 0
-1151 0
-1152 0
-1153 0
-1154 0
-1155 0
-1156 0
-1157 0
-1158 0
-1159 0
-1160 0
-1161 0
-1162 0
-1163 0
-1164 0
-1165 0
-1166 0
-1167 0
-1168 0
-1169 0
-1170 0
-1171 0
-1172 0
-1173 0
-1174 0
-1175 0
-1176 0
-1177 0
-1178 0
-1179 0
-1180 0
-1181 0
-1182 0
-1183 0
-1184 0
-1185 0
-1186 0
-1187 0
-1188 0
-1189 0
-1190 0
-1191 0
-1192 0
-1193 0
-1194 0
-1195 0
-1196 0
-1197 0
-1198 0
-1199 0
-1200 0
-1201 0
-1202 0
-1203 0
-1204 0
-1205 0
-1206 0
-1207 0
-1208 0
-1209 0
-1210 0
-1211 0
-1212 0
-1213 0
-1214 0
-1215 0
-1216 0
-1217 0
-1218 0
-1219 0
-1220 0
-1221 0
-1222 0
-1223 0
-1224 0
-1225 0
-1226 0
-1227 0
-1228 0
-1229 0
-1230 0
-1231 0
-1232 0
-1233 0
-1234 0
-1235 0
-1236 0
-1237 0
-1238 0
-1239 0
-1240 0
-1241 0
-1242 0
-1243 0
-1244 0
-1245 0
-1246 0
-1247 0
-1248 0
-1249 0
-1250 0
-1251 0
-1252 0
-1253 0
-1254 0
-1255 0
-1256 0
-1257 0
-1258 0
-1259 0
-1260 0
-1261 0
-1262 0
-1263 0
-1264 0
-1265 0
-1266 0
-1267 0
-1268 0
-1269 0
-1270 0
-1271 0
-1272 0
-1273 0
-1274 0
-1275 0
-1276 0
-1277 0
-1278 0
-1279 0
-1280 0
-1281 0
-1282 0
-1283 0
-1284 0
-1285 0
-1286 0
-1287 0
-1288 0
-1289 0
-1290 0
-1291 0
-1292 0
-1293 0
-1294 0
-1295 0
-1296 0
-1297 0
-1298 0
-1299 0
-1300 0
-1301 0
-1302 0
-1303 0
-1304 0
-1305 0
-1306 0
-1307 0
-1308 0
-1309 0
-1310 0
-1311 0
-1312 0
-1313 0
-1314 0
-1315 0
-1316 0
-1317 0
-1318 0
-1319 0
-1320 0
-1321 0
-1322 0
-1323 0
-1324 0
-1325 0
-1326 0
-1327 0
-1328 0
-1329 0
-1330 0
-1331 0
-1332 0
-1333 0
-1334 0
-1335 0
-1336 0
-1337 0
-1338 0
-1339 0
-1340 0
-1341 0
-1342 0
-1343 0
-1344 0
-1345 0
-1346 0
-1347 0
-1348 0
-1349 0
-1350 0
-1351 0
-1352 0
-1353 0
-1354 0
-1355 0
-1356 0
-1357 0
-1358 0
-1359 0
-1360 0
-1361 0
-1362 0
-1363 0
-1364 0
-1365 0
-1366 0
-1367 0
-1368 0
-1369 0
-1370 0
-1371 0
-1372 0
-1373 0
-1374 0
-1375 0
-1376 0
-1377 0
-1378 0
-1379 0
-1380 0
-1381 0
-1382 0
-1383 0
-1384 0
-1385 0
-1386 0
-1387 0
-1388 0
-1389 0
-1390 0
-1391 0
-1392 0
-1393 0
-1394 0
-1395 0
-1396 0
-1397 0
-1398 0
-1399 0
-1400 0
-1401 0
-1402 0
-1403 0
-1404 0
-1405 0
-1406 0
-1407 0
-1408 0
-1409 0
-1410 0
-1411 0
-1412 0
-1413 0
-1414 0
-1415 0
-1416 0
-1417 0
-1418 0
-1419 0
-1420 0
-1421 0
-1422 0
-1423 0
-1424 0
-1425 0
-1426 0
-1427 0
-1428 0
-1429 0
-1430 0
-1431 0
-1432 0
-1433 0
-1434 0
-1435 0
-1436 0
-1437 0
-1438 0
-1439 0
-1440 0
-1441 0
-1442 0
-1443 0
-1444 0
-1445 0
-1446 0
-1447 0
-1448 0
-1449 0
-1450 0
-1451 0
-1452 0
-1453 0
-1454 0
-1455 0
-1456 0
-1457 0
-1458 0
-1459 0
-1460 0
-1461 0
-1462 0
-1463 0
-1464 0
-1465 0
-1466 0
-1467 0
-1468 0
-1469 0
-1470 0
-1471 0
-1472 0
-1473 0
-1474 0
-1475 0
-1476 0
-1477 0
-1478 0
-1479 0
-1480 0
-1481 0
-1482 0
-1483 0
-1484 0
-1485 0
-1486 0
-1487 0
-1488 0
-1489 0
-1490 0
-1491 0
-1492 0
-1493 0
-1494 0
-1495 0
-1496 0
-1497 0
-1498 0
-1499 0
-1500 0
-1501 0
-1502 0
-1503 0
-1504 0
-1505 0
-1506 0
-1507 0
-1508 0
-1509 0
-1510 0
-1511 0
-1512 0
-1513 0
-1514 0
-1515 0
-1516 0
-1517 0
-1518 0
-1519 0
-1520 0
-1521 0
-1522 0
-1523 0
-1524 0
-1525 0
-1526 0
-1527 0
-1528 0
-1529 0
-1530 0
-1531 0
-1532 0
-1533 0
-1534 0
-1535 0
-1536 0
-1537 0
-1538 0
-1539 0
-1540 0
-1541 0
-1542 0
-1543 0
-1544 0
-1545 0
-1546 0
-1547 0
-1548 0
-1549 0
-1550 0
-1551 0
-1552 0
-1553 0
-1554 0
-1555 0
-1556 0
-1557 0
-1558 0
-1559 0
-1560 0
-1561 0
-1562 0
-1563 0
-1564 0
-1565 0
-1566 0
-1567 0
-1568 0
-1569 0
-1570 0
-1571 0
-1572 0
-1573 0
-1574 0
-1575 0
-1576 0
-1577 0
-1578 0
-1579 0
-1580 0
-1581 0
-1582 0
-1583 0
-1584 0
-1585 0
-1586 0
-1587 0
-1588 0
-1589 0
-1590 0
-1591 0
-1592 0
-1593 0
-1594 0
-1595 0
-1596 0
-1597 0
-1598 0
-1599 0
-1600 0
-1601 0
-1602 0
-1603 0
-1604 0
-1605 0
-1606 0
-1607 0
-1608 0
-1609 0
-1610 0
-1611 0
-1612 0
-1613 0
-1614 0
-1615 0
-1616 0
-1617 0
-1618 0
-1619 0
-1620 0
-1621 0
-1622 0
-1623 0
-1624 0
-1625 0
-1626 0
-1627 0
-1628 0
-1629 0
-1630 0
-1631 0
-1632 0
-1633 0
-1634 0
-1635 0
-1636 0
-1637 0
-1638 0
-1639 0
-1640 0
-1641 0
-1642 0
-1643 0
-1644 0
-1645 0
-1646 0
-1647 0
-1648 0
-1649 0
-1650 0
-1651 0
-1652 0
-1653 0
-1654 0
-1655 0
-1656 0
-1657 0
-1658 0
-1659 0
-1660 0
-1661 0
-1662 0
-1663 0
-1664 0
-1665 0
-1666 0
-1667 0
-1668 0
-1669 0
-1670 0
-1671 0
-1672 0
-1673 0
-1674 0
-1675 0
-1676 0
-1677 0
-1678 0
-1679 0
-1680 0
-1681 0
-1682 0
-1683 0
-1684 0
-1685 0
-1686 0
-1687 0
-1688 0
-1689 0
-1690 0
-1691 0
-1692 0
-1693 0
-1694 0
-1695 0
-1696 0
-1697 0
-1698 0
-1699 0
-1700 0
-1701 0
-1702 0
-1703 0
-1704 0
-1705 0
-1706 0
-1707 0
-1708 0
-1709 0
-1710 0
-1711 0
-1712 0
-1713 0
-1714 0
-1715 0
-1716 0
-1717 0
-1718 0
-1719 0
-1720 0
-1721 0
-1722 0
-1723 0
-1724 0
-1725 0
-1726 0
-1727 0
-1728 0
-1729 0
-1730 0
-1731 0
-1732 0
-1733 0
-1734 0
-1735 0
-1736 0
-1737 0
-1738 0
-1739 0
-1740 0
-1741 0
-1742 0
-1743 0
-1744 0
-1745 0
-1746 0
-1747 0
-1748 0
-1749 0
-1750 0
-1751 0
-1752 0
-1753 0
-1754 0
-1755 0
-1756 0
-1757 0
-1758 0
-6 -1 0
-35 36 0
-37 1 0
-38 1 0
-39 1 0
-40 1 0
-6 -1 0
-77 6 0
-85 6 0
-88 6 0
-89 6 0
-91 92 93 94 95 0
-104 93 105 0
-106 -104 0
-108 -104 0
-109 -104 0
-110 -104 0
-106 116 0
-106 -104 0
-108 -106 0
-109 -106 0
-110 -106 0
-119 -118 -93 0
-120 -118 -93 0
-129 -123 0
-130 -123 0
-123 -105 0
-123 -93 0
-123 -116 0
-134 -123 0
-130 -129 0
-129 -105 0
-129 -93 0
-129 -116 0
-134 -129 0
-130 -123 0
-130 -129 0
-130 -105 0
-130 -93 0
-130 -116 0
-134 -130 0
-141 -93 0
-141 -116 0
-142 123 129 130 0
-142 -93 0
-142 -116 0
-142 -134 0
-105 144 145 146 0
-105 104 108 0
-123 -105 0
-129 -105 0
-130 -105 0
-105 -93 0
-116 -105 0
-134 -105 0
-155 -129 0
-155 -130 0
-155 -134 0
-156 -155 0
-155 -93 0
-156 -129 0
-156 -130 0
-156 -155 0
-160 93 116 0
-108 -104 0
-108 -106 0
-109 -108 0
-110 -108 0
-109 -104 0
-109 -106 0
-109 -108 0
-110 -109 0
-164 165 0
-166 -108 0
-167 -166 0
-168 -166 0
-169 -166 0
-170 -166 0
-167 -108 0
-167 -166 0
-168 -167 0
-169 -167 0
-170 -167 0
-168 -108 0
-168 -166 0
-168 -167 0
-169 -168 0
-170 -168 0
-169 -108 0
-169 -166 0
-169 -167 0
-169 -168 0
-170 -169 0
-176 -42 0
-177 -42 0
-176 -42 0
-177 -176 0
-180 -177 0
-177 -42 0
-177 -176 0
-186 -185 93 0
-187 -185 0
-185 186 0
-189 -185 0
-185 -116 0
-185 -134 0
-189 -185 0
-189 -116 0
-191 -189 0
-189 -134 0
-170 -108 0
-170 -166 0
-170 -167 0
-170 -168 0
-170 -169 0
-209 -196 0
-210 -196 0
-196 -120 0
-307 -93 0
-306 -93 0
-305 -93 0
-304 -93 0
-303 -93 0
-301 -93 0
-300 -93 0
-282 -93 0
-281 -93 0
-275 -93 0
-265 -93 0
-264 -93 0
-261 -93 0
-259 -93 0
-258 -93 0
-191 -93 0
-187 -93 0
-93 186 0
-165 -93 0
-155 -93 0
-146 -93 0
-142 -93 0
-141 -93 0
-134 -93 0
-130 -93 0
-129 -93 0
-123 -93 0
-116 -93 0
-110 -93 0
-348 -116 0
-346 -116 0
-345 -116 0
-344 -116 0
-307 -116 0
-306 -116 0
-305 -116 0
-303 -116 0
-301 -116 0
-300 -116 0
-282 -116 0
-281 -116 0
-275 -116 0
-265 -116 0
-264 -116 0
-261 -116 0
-210 -116 0
-191 -116 0
-189 -116 0
-185 -116 0
-165 -116 0
-146 -116 0
-142 -116 0
-141 -116 0
-134 -116 0
-130 -116 0
-129 -116 0
-123 -116 0
-120 -116 0
-116 -110 0
-116 -105 0
-116 -104 0
-116 -93 0
-116 -91 0
-356 116 0
-356 -146 0
-357 -186 358 0
-357 -186 359 0
-357 -186 42 0
-357 -187 0
-357 186 0
-360 -186 358 0
-360 -186 359 0
-360 -186 42 0
-360 -187 0
-360 186 0
-361 -186 358 0
-361 -186 359 0
-361 -186 42 0
-361 -187 0
-361 186 0
-362 -186 358 0
-362 -186 359 0
-362 -186 42 0
-362 -187 0
-362 186 0
-363 -186 358 0
-363 -186 359 0
-363 -186 42 0
-363 -187 0
-363 186 0
-364 -186 358 0
-364 -186 359 0
-364 -186 42 0
-364 -187 0
-364 186 0
-365 -186 36 0
-365 -186 366 0
-365 -186 367 0
-365 -186 42 0
-365 -187 0
-365 186 0
-368 -186 358 0
-368 -186 359 0
-368 -186 42 0
-368 -187 0
-368 186 0
-369 165 0
-370 165 0
-371 165 0
-373 -372 0
-373 -372 0
-373 -372 116 0
-376 377 0
-378 165 0
-379 165 0
-110 -104 0
-110 -106 0
-110 -109 0
-110 -93 0
-116 -110 0
-389 -110 0
-392 165 0
-393 165 0
-394 165 0
-395 165 0
-396 165 0
-397 165 0
-398 165 0
-399 165 0
-400 165 0
-403 165 0
-404 165 0
-405 165 0
-406 165 0
-407 165 0
-408 165 0
-409 165 0
-410 165 0
-411 165 0
-412 165 0
-413 165 0
-414 165 0
-417 275 281 0
-418 265 0
-344 416 0
-344 -116 0
-344 -258 0
-344 -259 0
-344 -134 0
-396 -344 0
-420 -344 0
-421 -344 0
-422 -344 0
-423 -344 0
-424 -344 0
-425 -344 0
-426 -344 0
-427 -344 0
-428 -344 0
-258 -93 0
-344 -258 0
-259 -258 0
-259 416 0
-344 -259 0
-259 -258 0
-259 -185 0
-259 -93 0
-259 -92 0
-370 -259 0
-376 -259 0
-378 -259 0
-398 -259 0
-400 -259 0
-405 -259 0
-406 -259 0
-429 -259 0
-407 -259 0
-411 -259 0
-412 -259 0
-413 -259 0
-414 -259 0
-430 -259 0
-431 -259 0
-432 -259 0
-433 -259 0
-191 -187 0
-191 186 0
-191 -189 0
-191 -93 0
-191 -116 0
-191 -134 0
-275 -191 0
-281 -191 0
-282 -191 0
-191 -146 0
-435 -134 0
-345 -134 0
-344 -134 0
-307 -134 0
-306 -134 0
-305 -134 0
-301 -134 0
-300 -134 0
-282 -134 0
-281 -134 0
-275 -134 0
-265 -134 0
-264 -134 0
-261 -134 0
-346 -134 0
-191 -134 0
-189 -134 0
-134 187 0
-186 -134 0
-185 -134 0
-165 -134 0
-146 -134 0
-142 -134 0
-134 -130 0
-134 -129 0
-134 -123 0
-134 -116 0
-134 -93 0
-436 165 0
-345 -116 0
-345 -134 0
-373 -345 0
-346 -116 0
-346 -134 0
-373 -346 0
-437 165 0
-261 -93 0
-261 -116 0
-261 -134 0
-261 -120 0
-441 165 0
-210 -209 0
-209 -120 0
-210 -116 0
-210 -209 0
-210 -120 0
-448 -373 0
-421 377 0
-264 -93 0
-264 -116 0
-404 -264 0
-264 -134 0
-265 -93 0
-265 -116 0
-265 -134 0
-451 -186 165 0
-451 -187 0
-451 186 0
-452 165 0
-453 348 0
-455 264 0
-457 348 0
-459 116 146 426 0
-459 -93 0
-459 -348 0
-348 134 422 425 453 457 461 462 463 0
-348 -93 0
-459 -348 0
-464 165 0
-465 165 0
-466 303 0
-119 -93 120 0
-119 -118 -93 0
-119 -116 0
-471 303 0
-472 165 0
-120 -93 119 0
-120 -118 -93 0
-120 -116 0
-134 -120 0
-261 -120 0
-209 -120 0
-210 -120 0
-476 348 0
-461 348 0
-461 303 0
-389 -110 0
-373 93 116 134 0
-373 -372 0
-373 -372 0
-373 -372 116 0
-373 -345 0
-373 -346 0
-448 -373 0
-373 -304 0
-275 -187 0
-275 186 0
-275 -93 0
-275 -116 0
-275 -191 0
-275 -134 0
-281 -275 0
-282 -275 0
-275 -146 0
-422 348 0
-462 348 0
-281 -187 0
-281 186 0
-281 -93 0
-281 -116 0
-281 -191 0
-281 -134 0
-281 -275 0
-282 -281 0
-281 -146 0
-282 -187 0
-282 186 0
-282 -93 0
-282 -116 0
-282 -134 0
-146 459 0
-146 -93 0
-146 -116 0
-191 -146 0
-146 -134 0
-348 -146 0
-275 -146 0
-281 -146 0
-282 -146 0
-463 348 0
-463 303 0
-424 303 0
-425 348 0
-484 303 0
-435 -134 0
-426 459 0
-485 348 0
-486 348 0
-488 165 0
-300 -93 0
-300 -116 0
-300 -134 0
-301 -300 0
-300 -165 0
-305 -300 0
-301 -93 0
-301 -116 0
-301 -134 0
-301 -300 0
-301 -165 0
-305 -301 0
-165 -93 0
-165 -116 0
-165 -134 0
-300 -165 0
-301 -165 0
-303 -165 0
-305 -165 0
-303 -187 0
-303 186 0
-303 -93 0
-303 -116 0
-303 -165 0
-304 -93 0
-373 -304 0
-305 -93 0
-305 -116 0
-305 -134 0
-305 -300 0
-305 -301 0
-305 -165 0
-377 376 421 457 0
-306 -93 0
-306 -116 0
-306 -134 0
-307 -306 0
-307 -93 0
-307 -116 0
-307 -134 0
-307 -306 0
-509 -180 0
-180 -177 0
-509 -180 0
-180 -42 0
-367 36 358 0
-367 358 366 0
-367 36 359 0
-367 359 366 0
-358 359 0
-366 36 0
-366 -359 0
-36 366 0
-359 358 0
-366 -359 0
-37 1 6 0
-38 1 6 0
-39 1 6 0
-40 1 6 0
-77 1 6 0
-85 1 6 0
-88 1 6 0
-89 1 6 0
-370 53 0
-555 53 0
-556 53 0
-405 53 0
-369 60 0
-404 60 0
-644 61 0
-643 61 0
-642 61 0
-641 61 0
-640 61 0
-639 61 0
-638 61 0
-637 61 0
-636 61 0
-635 61 0
-634 61 0
-633 61 0
-632 61 0
-631 61 0
-630 61 0
-629 61 0
-628 61 0
-627 61 0
-626 61 0
-625 61 0
-624 61 0
-623 61 0
-622 61 0
-621 61 0
-620 61 0
-619 61 0
-618 61 0
-617 61 0
-616 61 0
-615 61 0
-614 61 0
-613 61 0
-612 61 0
-611 61 0
-610 61 0
-609 61 0
-608 61 0
-607 61 0
-606 61 0
-605 61 0
-604 61 0
-603 61 0
-602 61 0
-601 61 0
-600 61 0
-599 61 0
-598 61 0
-597 61 0
-596 61 0
-595 61 0
-594 61 0
-593 61 0
-592 61 0
-591 61 0
-590 61 0
-589 61 0
-588 61 0
-587 61 0
-586 61 0
-585 61 0
-584 61 0
-583 61 0
-582 61 0
-581 61 0
-580 61 0
-579 61 0
-578 61 0
-577 61 0
-576 61 0
-575 61 0
-574 61 0
-573 61 0
-572 61 0
-571 61 0
-570 61 0
-569 61 0
-568 61 0
-567 61 0
-566 61 0
-565 61 0
-564 61 0
-563 61 0
-562 61 0
-561 61 0
-560 61 0
-559 61 0
-558 61 0
-557 61 0
-431 61 0
-429 61 0
-413 61 0
-412 61 0
-410 61 0
-406 61 0
-399 61 0
-371 61 0
-144 61 0
-95 61 0
-645 62 0
-646 62 0
-647 62 0
-648 62 0
-649 62 0
-376 62 0
-650 62 0
-651 62 0
-652 62 0
-653 62 0
-654 62 0
-655 62 0
-656 62 0
-657 62 0
-658 62 0
-378 63 0
-752 64 0
-751 64 0
-750 64 0
-749 64 0
-748 64 0
-747 64 0
-746 64 0
-745 64 0
-744 64 0
-743 64 0
-742 64 0
-741 64 0
-740 64 0
-739 64 0
-738 64 0
-737 64 0
-736 64 0
-735 64 0
-734 64 0
-733 64 0
-732 64 0
-731 64 0
-730 64 0
-729 64 0
-728 64 0
-727 64 0
-726 64 0
-725 64 0
-724 64 0
-723 64 0
-722 64 0
-721 64 0
-720 64 0
-719 64 0
-718 64 0
-717 64 0
-716 64 0
-715 64 0
-714 64 0
-713 64 0
-712 64 0
-711 64 0
-710 64 0
-709 64 0
-708 64 0
-707 64 0
-706 64 0
-705 64 0
-704 64 0
-703 64 0
-702 64 0
-701 64 0
-700 64 0
-699 64 0
-698 64 0
-697 64 0
-696 64 0
-695 64 0
-694 64 0
-693 64 0
-692 64 0
-691 64 0
-690 64 0
-689 64 0
-688 64 0
-687 64 0
-686 64 0
-685 64 0
-684 64 0
-683 64 0
-682 64 0
-681 64 0
-680 64 0
-679 64 0
-678 64 0
-677 64 0
-676 64 0
-675 64 0
-674 64 0
-673 64 0
-672 64 0
-671 64 0
-670 64 0
-669 64 0
-668 64 0
-667 64 0
-666 64 0
-665 64 0
-664 64 0
-663 64 0
-662 64 0
-661 64 0
-660 64 0
-659 64 0
-486 64 0
-485 64 0
-484 64 0
-481 64 0
-476 64 0
-463 64 0
-462 64 0
-461 64 0
-452 64 0
-432 64 0
-430 64 0
-428 64 0
-427 64 0
-426 64 0
-425 64 0
-424 64 0
-423 64 0
-422 64 0
-421 64 0
-418 64 0
-403 64 0
-397 64 0
-396 64 0
-395 64 0
-394 64 0
-393 64 0
-164 64 0
-94 64 0
-753 65 0
-398 65 0
-636 65 0
-379 66 0
-400 66 0
-754 66 0
-420 66 0
-433 66 0
-755 66 0
-756 66 0
-757 66 0
-758 66 0
-759 66 0
-760 66 0
-761 66 0
-762 66 0
-763 66 0
-437 66 0
-764 66 0
-765 66 0
-766 66 0
-767 66 0
-768 66 0
-769 66 0
-770 66 0
-771 66 0
-772 66 0
-773 66 0
-774 66 0
-775 66 0
-776 66 0
-464 66 0
-777 66 0
-465 66 0
-472 66 0
-721 66 0
-778 66 0
-724 66 0
-488 66 0
-779 66 0
-392 67 0
-414 67 0
-780 67 0
-436 67 0
-441 67 0
-453 67 0
-781 67 0
-455 67 0
-782 67 0
-783 67 0
-457 67 0
-784 67 0
-785 67 0
-786 67 0
-466 67 0
-787 67 0
-788 67 0
-789 67 0
-790 67 0
-791 67 0
-792 67 0
-793 67 0
-794 67 0
-407 68 0
-408 68 0
-409 68 0
-795 68 0
-796 68 0
-797 68 0
-798 68 0
-799 68 0
-471 68 0
-411 69 0
-432 70 0
-661 70 0
-433 70 0
-668 70 0
-764 70 0
-678 70 0
-772 70 0
-707 70 0
-476 70 0
-709 70 0
-461 70 0
-719 70 0
-720 70 0
-481 70 0
-723 70 0
-726 70 0
-484 70 0
-733 70 0
-485 70 0
-486 70 0
-735 70 0
-800 71 0
-801 71 0
-802 71 0
-803 71 0
-804 71 0
-684 71 0
-805 71 0
-806 71 0
-451 71 0
-557 72 0
-95 72 0
-645 72 0
-633 72 0
-646 72 0
-370 72 0
-555 72 0
-556 72 0
-647 72 0
-648 72 0
-649 72 0
-371 72 0
-376 72 0
-634 72 0
-650 72 0
-651 72 0
-652 72 0
-378 72 0
-635 72 0
-636 72 0
-637 72 0
-399 72 0
-638 72 0
-639 72 0
-404 72 0
-640 72 0
-405 72 0
-641 72 0
-406 72 0
-642 72 0
-429 72 0
-410 72 0
-411 72 0
-412 72 0
-653 72 0
-413 72 0
-643 72 0
-644 72 0
-431 72 0
-654 72 0
-655 72 0
-656 72 0
-657 72 0
-658 72 0
-808 78 0
-807 78 0
-806 78 0
-805 78 0
-804 78 0
-803 78 0
-802 78 0
-801 78 0
-800 78 0
-752 78 0
-750 78 0
-749 78 0
-748 78 0
-747 78 0
-746 78 0
-745 78 0
-744 78 0
-743 78 0
-742 78 0
-741 78 0
-740 78 0
-739 78 0
-738 78 0
-736 78 0
-735 78 0
-734 78 0
-733 78 0
-732 78 0
-731 78 0
-730 78 0
-729 78 0
-728 78 0
-727 78 0
-726 78 0
-724 78 0
-723 78 0
-722 78 0
-720 78 0
-719 78 0
-718 78 0
-717 78 0
-716 78 0
-715 78 0
-714 78 0
-713 78 0
-712 78 0
-711 78 0
-710 78 0
-709 78 0
-708 78 0
-707 78 0
-706 78 0
-705 78 0
-704 78 0
-703 78 0
-702 78 0
-701 78 0
-700 78 0
-699 78 0
-697 78 0
-696 78 0
-695 78 0
-694 78 0
-693 78 0
-692 78 0
-691 78 0
-690 78 0
-689 78 0
-688 78 0
-687 78 0
-686 78 0
-685 78 0
-684 78 0
-683 78 0
-682 78 0
-681 78 0
-680 78 0
-679 78 0
-678 78 0
-677 78 0
-676 78 0
-675 78 0
-674 78 0
-673 78 0
-672 78 0
-671 78 0
-670 78 0
-669 78 0
-668 78 0
-667 78 0
-666 78 0
-665 78 0
-664 78 0
-663 78 0
-662 78 0
-661 78 0
-660 78 0
-659 78 0
-486 78 0
-485 78 0
-484 78 0
-481 78 0
-476 78 0
-463 78 0
-462 78 0
-461 78 0
-452 78 0
-451 78 0
-432 78 0
-430 78 0
-428 78 0
-427 78 0
-426 78 0
-425 78 0
-424 78 0
-423 78 0
-422 78 0
-421 78 0
-418 78 0
-403 78 0
-397 78 0
-396 78 0
-395 78 0
-394 78 0
-393 78 0
-164 78 0
-94 78 0
-753 86 0
-369 86 0
-379 86 0
-398 86 0
-400 86 0
-640 86 0
-754 86 0
-420 86 0
-433 86 0
-755 86 0
-756 86 0
-757 86 0
-758 86 0
-759 86 0
-760 86 0
-761 86 0
-762 86 0
-763 86 0
-437 86 0
-764 86 0
-765 86 0
-766 86 0
-767 86 0
-768 86 0
-769 86 0
-770 86 0
-771 86 0
-772 86 0
-773 86 0
-774 86 0
-775 86 0
-776 86 0
-464 86 0
-777 86 0
-465 86 0
-472 86 0
-721 86 0
-778 86 0
-488 86 0
-779 86 0
-392 87 0
-407 87 0
-408 87 0
-409 87 0
-414 87 0
-795 87 0
-796 87 0
-797 87 0
-780 87 0
-798 87 0
-436 87 0
-441 87 0
-799 87 0
-453 87 0
-781 87 0
-455 87 0
-782 87 0
-783 87 0
-457 87 0
-784 87 0
-785 87 0
-786 87 0
-466 87 0
-787 87 0
-471 87 0
-788 87 0
-789 87 0
-790 87 0
-791 87 0
-792 87 0
-793 87 0
-794 87 0
-810 90 0
-809 90 0
-753 90 0
-716 90 0
-660 90 0
-658 90 0
-657 90 0
-656 90 0
-655 90 0
-654 90 0
-653 90 0
-652 90 0
-651 90 0
-650 90 0
-648 90 0
-647 90 0
-646 90 0
-645 90 0
-644 90 0
-643 90 0
-641 90 0
-640 90 0
-639 90 0
-638 90 0
-637 90 0
-636 90 0
-634 90 0
-633 90 0
-632 90 0
-631 90 0
-630 90 0
-629 90 0
-628 90 0
-627 90 0
-626 90 0
-625 90 0
-624 90 0
-623 90 0
-622 90 0
-621 90 0
-620 90 0
-619 90 0
-618 90 0
-617 90 0
-616 90 0
-615 90 0
-614 90 0
-613 90 0
-612 90 0
-611 90 0
-610 90 0
-609 90 0
-608 90 0
-607 90 0
-606 90 0
-605 90 0
-604 90 0
-603 90 0
-602 90 0
-601 90 0
-600 90 0
-599 90 0
-598 90 0
-597 90 0
-596 90 0
-595 90 0
-594 90 0
-593 90 0
-592 90 0
-591 90 0
-590 90 0
-589 90 0
-588 90 0
-587 90 0
-586 90 0
-585 90 0
-584 90 0
-583 90 0
-582 90 0
-581 90 0
-580 90 0
-579 90 0
-578 90 0
-577 90 0
-576 90 0
-575 90 0
-574 90 0
-573 90 0
-572 90 0
-571 90 0
-570 90 0
-569 90 0
-568 90 0
-567 90 0
-566 90 0
-565 90 0
-564 90 0
-563 90 0
-562 90 0
-560 90 0
-559 90 0
-558 90 0
-557 90 0
-556 90 0
-555 90 0
-431 90 0
-430 90 0
-429 90 0
-414 90 0
-413 90 0
-412 90 0
-411 90 0
-410 90 0
-409 90 0
-408 90 0
-407 90 0
-406 90 0
-405 90 0
-404 90 0
-403 90 0
-400 90 0
-399 90 0
-398 90 0
-397 90 0
-396 90 0
-393 90 0
-392 90 0
-379 90 0
-378 90 0
-376 90 0
-371 90 0
-370 90 0
-369 90 0
-93 91 0
-451 97 0
-452 97 0
-686 97 0
-687 97 0
-453 97 0
-781 97 0
-455 97 0
-776 97 0
-689 97 0
-782 97 0
-783 97 0
-457 97 0
-784 97 0
-785 97 0
-690 97 0
-786 97 0
-691 97 0
-692 97 0
-693 97 0
-694 97 0
-695 97 0
-696 97 0
-697 97 0
-698 97 0
-699 97 0
-700 97 0
-701 97 0
-464 97 0
-777 97 0
-465 97 0
-702 97 0
-703 97 0
-466 97 0
-704 97 0
-787 97 0
-471 97 0
-788 97 0
-789 97 0
-705 97 0
-472 97 0
-790 97 0
-791 97 0
-792 97 0
-706 97 0
-793 97 0
-794 97 0
-708 98 0
-461 98 0
-710 98 0
-711 98 0
-712 98 0
-713 98 0
-715 98 0
-422 98 0
-462 98 0
-717 98 0
-718 98 0
-463 98 0
-721 98 0
-424 98 0
-778 98 0
-425 98 0
-725 98 0
-727 98 0
-728 98 0
-729 98 0
-730 98 0
-731 98 0
-426 98 0
-427 98 0
-734 98 0
-707 99 0
-476 99 0
-709 99 0
-719 99 0
-423 99 0
-720 99 0
-481 99 0
-723 99 0
-724 99 0
-726 99 0
-484 99 0
-733 99 0
-485 99 0
-486 99 0
-735 99 0
-811 100 0
-799 100 0
-798 100 0
-797 100 0
-796 100 0
-795 100 0
-780 100 0
-775 100 0
-774 100 0
-773 100 0
-772 100 0
-771 100 0
-770 100 0
-769 100 0
-768 100 0
-767 100 0
-765 100 0
-764 100 0
-763 100 0
-762 100 0
-761 100 0
-760 100 0
-759 100 0
-758 100 0
-757 100 0
-756 100 0
-755 100 0
-754 100 0
-683 100 0
-682 100 0
-681 100 0
-680 100 0
-679 100 0
-678 100 0
-677 100 0
-676 100 0
-675 100 0
-674 100 0
-673 100 0
-672 100 0
-671 100 0
-670 100 0
-669 100 0
-668 100 0
-667 100 0
-666 100 0
-665 100 0
-664 100 0
-663 100 0
-662 100 0
-661 100 0
-441 100 0
-437 100 0
-436 100 0
-433 100 0
-432 100 0
-421 100 0
-420 100 0
-418 100 0
-732 101 0
-736 101 0
-737 101 0
-738 101 0
-739 101 0
-740 101 0
-428 101 0
-741 101 0
-742 101 0
-743 101 0
-488 101 0
-779 101 0
-744 101 0
-745 101 0
-746 101 0
-747 101 0
-748 101 0
-749 101 0
-750 101 0
-751 101 0
-752 101 0
-394 102 0
-395 102 0
-800 102 0
-801 102 0
-802 102 0
-803 102 0
-804 102 0
-684 102 0
-805 102 0
-806 102 0
-714 102 0
-808 102 0
-722 102 0
-93 104 106 108 109 110 0
-105 104 106 108 109 110 0
-116 104 106 108 109 110 0
-810 92 0
-809 92 0
-632 92 0
-631 92 0
-630 92 0
-629 92 0
-628 92 0
-627 92 0
-626 92 0
-625 92 0
-624 92 0
-623 92 0
-622 92 0
-621 92 0
-620 92 0
-619 92 0
-618 92 0
-617 92 0
-616 92 0
-615 92 0
-614 92 0
-613 92 0
-612 92 0
-611 92 0
-610 92 0
-609 92 0
-608 92 0
-607 92 0
-606 92 0
-605 92 0
-604 92 0
-603 92 0
-602 92 0
-601 92 0
-600 92 0
-599 92 0
-598 92 0
-597 92 0
-596 92 0
-595 92 0
-594 92 0
-593 92 0
-592 92 0
-591 92 0
-590 92 0
-589 92 0
-588 92 0
-587 92 0
-586 92 0
-585 92 0
-584 92 0
-583 92 0
-582 92 0
-581 92 0
-580 92 0
-579 92 0
-578 92 0
-577 92 0
-576 92 0
-575 92 0
-574 92 0
-573 92 0
-572 92 0
-571 92 0
-570 92 0
-569 92 0
-568 92 0
-567 92 0
-566 92 0
-565 92 0
-564 92 0
-563 92 0
-562 92 0
-561 92 0
-560 92 0
-559 92 0
-558 92 0
-557 92 0
-93 116 134 185 189 191 0
-93 372 373 0
-116 372 373 0
-812 415 0
-753 415 0
-660 415 0
-653 415 0
-652 415 0
-651 415 0
-650 415 0
-648 415 0
-647 415 0
-646 415 0
-644 415 0
-643 415 0
-641 415 0
-640 415 0
-639 415 0
-638 415 0
-637 415 0
-636 415 0
-634 415 0
-633 415 0
-556 415 0
-555 415 0
-431 415 0
-430 415 0
-429 415 0
-414 415 0
-413 415 0
-412 415 0
-411 415 0
-410 415 0
-409 415 0
-408 415 0
-407 415 0
-406 415 0
-405 415 0
-404 415 0
-403 415 0
-400 415 0
-399 415 0
-398 415 0
-397 415 0
-396 415 0
-395 415 0
-394 415 0
-393 415 0
-392 415 0
-379 415 0
-378 415 0
-376 415 0
-371 415 0
-370 415 0
-369 415 0
-344 416 0
-259 416 0
-116 93 258 259 344 0
-93 116 134 345 373 0
-93 116 134 346 373 0
-93 373 448 0
-116 373 448 0
-93 449 0
-116 449 0
-191 93 116 134 265 0
-811 450 0
-799 450 0
-798 450 0
-797 450 0
-796 450 0
-795 450 0
-780 450 0
-775 450 0
-774 450 0
-773 450 0
-772 450 0
-771 450 0
-770 450 0
-769 450 0
-768 450 0
-767 450 0
-765 450 0
-764 450 0
-763 450 0
-762 450 0
-761 450 0
-760 450 0
-759 450 0
-758 450 0
-757 450 0
-756 450 0
-755 450 0
-754 450 0
-683 450 0
-682 450 0
-681 450 0
-680 450 0
-678 450 0
-677 450 0
-676 450 0
-675 450 0
-674 450 0
-673 450 0
-672 450 0
-671 450 0
-670 450 0
-669 450 0
-668 450 0
-667 450 0
-666 450 0
-665 450 0
-664 450 0
-663 450 0
-441 450 0
-437 450 0
-436 450 0
-433 450 0
-432 450 0
-421 450 0
-420 450 0
-418 450 0
-116 93 348 459 0
-146 93 348 459 0
-426 93 348 459 0
-134 93 348 459 0
-453 93 348 459 0
-457 93 348 459 0
-461 93 348 459 0
-422 93 348 459 0
-462 93 348 459 0
-463 93 348 459 0
-425 93 348 459 0
-800 145 0
-801 145 0
-803 145 0
-804 145 0
-684 145 0
-805 145 0
-451 145 0
-452 145 0
-686 145 0
-687 145 0
-453 145 0
-781 145 0
-455 145 0
-776 145 0
-689 145 0
-782 145 0
-783 145 0
-457 145 0
-784 145 0
-785 145 0
-690 145 0
-786 145 0
-691 145 0
-692 145 0
-693 145 0
-694 145 0
-697 145 0
-699 145 0
-700 145 0
-464 145 0
-777 145 0
-465 145 0
-702 145 0
-703 145 0
-466 145 0
-787 145 0
-471 145 0
-788 145 0
-789 145 0
-705 145 0
-472 145 0
-790 145 0
-791 145 0
-792 145 0
-706 145 0
-793 145 0
-794 145 0
-93 134 435 0
-707 487 0
-708 487 0
-476 487 0
-709 487 0
-461 487 0
-710 487 0
-654 487 0
-711 487 0
-655 487 0
-712 487 0
-656 487 0
-713 487 0
-657 487 0
-658 487 0
-714 487 0
-715 487 0
-716 487 0
-422 487 0
-717 487 0
-718 487 0
-719 487 0
-423 487 0
-463 487 0
-808 487 0
-720 487 0
-481 487 0
-721 487 0
-424 487 0
-722 487 0
-723 487 0
-778 487 0
-724 487 0
-425 487 0
-725 487 0
-726 487 0
-727 487 0
-728 487 0
-729 487 0
-730 487 0
-731 487 0
-484 487 0
-426 487 0
-733 487 0
-485 487 0
-427 487 0
-486 487 0
-734 487 0
-164 93 116 134 165 300 301 303 305 0
-369 93 116 134 165 300 301 303 305 0
-370 93 116 134 165 300 301 303 305 0
-371 93 116 134 165 300 301 303 305 0
-378 93 116 134 165 300 301 303 305 0
-379 93 116 134 165 300 301 303 305 0
-392 93 116 134 165 300 301 303 305 0
-393 93 116 134 165 300 301 303 305 0
-394 93 116 134 165 300 301 303 305 0
-395 93 116 134 165 300 301 303 305 0
-396 93 116 134 165 300 301 303 305 0
-397 93 116 134 165 300 301 303 305 0
-398 93 116 134 165 300 301 303 305 0
-399 93 116 134 165 300 301 303 305 0
-400 93 116 134 165 300 301 303 305 0
-403 93 116 134 165 300 301 303 305 0
-404 93 116 134 165 300 301 303 305 0
-405 93 116 134 165 300 301 303 305 0
-406 93 116 134 165 300 301 303 305 0
-407 93 116 134 165 300 301 303 305 0
-408 93 116 134 165 300 301 303 305 0
-409 93 116 134 165 300 301 303 305 0
-410 93 116 134 165 300 301 303 305 0
-411 93 116 134 165 300 301 303 305 0
-412 93 116 134 165 300 301 303 305 0
-413 93 116 134 165 300 301 303 305 0
-414 93 116 134 165 300 301 303 305 0
-436 93 116 134 165 300 301 303 305 0
-437 93 116 134 165 300 301 303 305 0
-441 93 116 134 165 300 301 303 305 0
-451 93 116 134 165 300 301 303 305 0
-452 93 116 134 165 300 301 303 305 0
-464 93 116 134 165 300 301 303 305 0
-465 93 116 134 165 300 301 303 305 0
-472 93 116 134 165 300 301 303 305 0
-488 93 116 134 165 300 301 303 305 0
-457 -186 93 116 165 303 0
-466 -186 93 116 165 303 0
-471 -186 93 116 165 303 0
-461 -186 93 116 165 303 0
-463 -186 93 116 165 303 0
-424 -186 93 116 165 303 0
-484 -186 93 116 165 303 0
-116 93 304 373 0
-134 93 304 373 0
-376 377 0
-421 377 0
-457 377 0
-736 489 0
-738 489 0
-428 489 0
-741 489 0
-742 489 0
-743 489 0
-488 489 0
-779 489 0
-744 489 0
-745 489 0
-746 489 0
-177 180 509 0
42 177 180 509 0
186 187 0
-187 -186 0
36 358 0
36 359 0
358 366 0
359 366 0
358 367 0
359 367 0
